\* shop ordering *\
Minimize
OBJ: 2.03244041991 O_(0,_0,_0) + 2.03244041991 O_(0,_0,_1)
 + 2.03244041991 O_(0,_0,_2) + 2.88487384545 O_(0,_1,_0)
 + 2.88487384545 O_(0,_1,_1) + 2.88487384545 O_(0,_1,_2)
 + 3.09270800488 O_(0,_2,_0) + 3.09270800488 O_(0,_2,_1)
 + 3.09270800488 O_(0,_2,_2) + 5.13511571749 O_(0,_3,_0)
 + 5.13511571749 O_(0,_3,_1) + 5.13511571749 O_(0,_3,_2)
 + 1.77201234398 O_(0,_4,_0) + 1.77201234398 O_(0,_4,_1)
 + 1.77201234398 O_(0,_4,_2) + 6.70452909192 O_(1,_0,_0)
 + 6.70452909192 O_(1,_0,_1) + 6.70452909192 O_(1,_0,_2)
 + 3.60697245886 O_(1,_1,_0) + 3.60697245886 O_(1,_1,_1)
 + 3.60697245886 O_(1,_1,_2) + 3.16418869072 O_(1,_2,_0)
 + 3.16418869072 O_(1,_2,_1) + 3.16418869072 O_(1,_2,_2)
 + 3.71576525709 O_(1,_3,_0) + 3.71576525709 O_(1,_3,_1)
 + 3.71576525709 O_(1,_3,_2) + 1.71097843809 O_(1,_4,_0)
 + 1.71097843809 O_(1,_4,_1) + 1.71097843809 O_(1,_4,_2)
 + 2.90627022413 O_(2,_0,_0) + 2.90627022413 O_(2,_0,_1)
 + 2.90627022413 O_(2,_0,_2) + 0.981106222616 O_(2,_1,_0)
 + 0.981106222616 O_(2,_1,_1) + 0.981106222616 O_(2,_1,_2)
 + 3.07513357606 O_(2,_2,_0) + 3.07513357606 O_(2,_2,_1)
 + 3.07513357606 O_(2,_2,_2) + 1.51605548167 O_(2,_3,_0)
 + 1.51605548167 O_(2,_3,_1) + 1.51605548167 O_(2,_3,_2)
 + 1.35365110792 O_(2,_4,_0) + 1.35365110792 O_(2,_4,_1)
 + 1.35365110792 O_(2,_4,_2) + 4.92995234213 O_(3,_0,_0)
 + 4.92995234213 O_(3,_0,_1) + 4.92995234213 O_(3,_0,_2)
 + 5.69354089528 O_(3,_1,_0) + 5.69354089528 O_(3,_1,_1)
 + 5.69354089528 O_(3,_1,_2) + 1.50386734688 O_(3,_2,_0)
 + 1.50386734688 O_(3,_2,_1) + 1.50386734688 O_(3,_2,_2)
 + 2.73711744467 O_(3,_3,_0) + 2.73711744467 O_(3,_3,_1)
 + 2.73711744467 O_(3,_3,_2) + 1.11077494584 O_(3,_4,_0)
 + 1.11077494584 O_(3,_4,_1) + 1.11077494584 O_(3,_4,_2)
 + 2.82204312402 O_(4,_0,_0) + 2.82204312402 O_(4,_0,_1)
 + 2.82204312402 O_(4,_0,_2) + 4.74951090655 O_(4,_1,_0)
 + 4.74951090655 O_(4,_1,_1) + 4.74951090655 O_(4,_1,_2)
 + 4.78737055183 O_(4,_2,_0) + 4.78737055183 O_(4,_2,_1)
 + 4.78737055183 O_(4,_2,_2) + 4.77473683026 O_(4,_3,_0)
 + 4.77473683026 O_(4,_3,_1) + 4.77473683026 O_(4,_3,_2)
 + 0.603750493183 O_(4,_4,_0) + 0.603750493183 O_(4,_4,_1)
 + 0.603750493183 O_(4,_4,_2)
Subject To
_C1: O_(0,_0,_0) >= 0
_C10: O_(0,_3,_0) >= 0
_C100: O_(0,_4,_0) + O_(1,_4,_0) + O_(2,_4,_0) + O_(3,_4,_0) + O_(4,_4,_0)
 - 1000 y_(4,_0) <= 0
_C101: b_(4,_0) = 4
_C102: O_(0,_4,_1) + O_(1,_4,_1) + O_(2,_4,_1) + O_(3,_4,_1) + O_(4,_4,_1)
 - 1000 y_(4,_1) <= 0
_C103: b_(4,_1) = 1
_C104: O_(0,_4,_2) + O_(1,_4,_2) + O_(2,_4,_2) + O_(3,_4,_2) + O_(4,_4,_2)
 - 1000 y_(4,_2) <= 0
_C105: b_(4,_2) = 9
_C11: O_(0,_3,_1) >= 0
_C12: O_(0,_3,_2) >= 0
_C13: O_(0,_4,_0) >= 0
_C14: O_(0,_4,_1) >= 0
_C15: O_(0,_4,_2) >= 0
_C16: O_(1,_0,_0) >= 0
_C17: O_(1,_0,_1) >= 0
_C18: O_(1,_0,_2) >= 0
_C19: O_(1,_1,_0) >= 0
_C2: O_(0,_0,_1) >= 0
_C20: O_(1,_1,_1) >= 0
_C21: O_(1,_1,_2) >= 0
_C22: O_(1,_2,_0) >= 0
_C23: O_(1,_2,_1) >= 0
_C24: O_(1,_2,_2) >= 0
_C25: O_(1,_3,_0) >= 0
_C26: O_(1,_3,_1) >= 0
_C27: O_(1,_3,_2) >= 0
_C28: O_(1,_4,_0) >= 0
_C29: O_(1,_4,_1) >= 0
_C3: O_(0,_0,_2) >= 0
_C30: O_(1,_4,_2) >= 0
_C31: O_(2,_0,_0) >= 0
_C32: O_(2,_0,_1) >= 0
_C33: O_(2,_0,_2) >= 0
_C34: O_(2,_1,_0) >= 0
_C35: O_(2,_1,_1) >= 0
_C36: O_(2,_1,_2) >= 0
_C37: O_(2,_2,_0) >= 0
_C38: O_(2,_2,_1) >= 0
_C39: O_(2,_2,_2) >= 0
_C4: O_(0,_1,_0) >= 0
_C40: O_(2,_3,_0) >= 0
_C41: O_(2,_3,_1) >= 0
_C42: O_(2,_3,_2) >= 0
_C43: O_(2,_4,_0) >= 0
_C44: O_(2,_4,_1) >= 0
_C45: O_(2,_4,_2) >= 0
_C46: O_(3,_0,_0) >= 0
_C47: O_(3,_0,_1) >= 0
_C48: O_(3,_0,_2) >= 0
_C49: O_(3,_1,_0) >= 0
_C5: O_(0,_1,_1) >= 0
_C50: O_(3,_1,_1) >= 0
_C51: O_(3,_1,_2) >= 0
_C52: O_(3,_2,_0) >= 0
_C53: O_(3,_2,_1) >= 0
_C54: O_(3,_2,_2) >= 0
_C55: O_(3,_3,_0) >= 0
_C56: O_(3,_3,_1) >= 0
_C57: O_(3,_3,_2) >= 0
_C58: O_(3,_4,_0) >= 0
_C59: O_(3,_4,_1) >= 0
_C6: O_(0,_1,_2) >= 0
_C60: O_(3,_4,_2) >= 0
_C61: O_(4,_0,_0) >= 0
_C62: O_(4,_0,_1) >= 0
_C63: O_(4,_0,_2) >= 0
_C64: O_(4,_1,_0) >= 0
_C65: O_(4,_1,_1) >= 0
_C66: O_(4,_1,_2) >= 0
_C67: O_(4,_2,_0) >= 0
_C68: O_(4,_2,_1) >= 0
_C69: O_(4,_2,_2) >= 0
_C7: O_(0,_2,_0) >= 0
_C70: O_(4,_3,_0) >= 0
_C71: O_(4,_3,_1) >= 0
_C72: O_(4,_3,_2) >= 0
_C73: O_(4,_4,_0) >= 0
_C74: O_(4,_4,_1) >= 0
_C75: O_(4,_4,_2) >= 0
_C76: O_(0,_0,_0) + O_(1,_0,_0) + O_(2,_0,_0) + O_(3,_0,_0) + O_(4,_0,_0)
 - 1000 y_(0,_0) <= 0
_C77: b_(4,_0) = 4
_C78: O_(0,_0,_1) + O_(1,_0,_1) + O_(2,_0,_1) + O_(3,_0,_1) + O_(4,_0,_1)
 - 1000 y_(0,_1) <= 0
_C79: b_(4,_1) = 1
_C8: O_(0,_2,_1) >= 0
_C80: O_(0,_0,_2) + O_(1,_0,_2) + O_(2,_0,_2) + O_(3,_0,_2) + O_(4,_0,_2)
 - 1000 y_(0,_2) <= 0
_C81: b_(4,_2) = 9
_C82: O_(0,_1,_0) + O_(1,_1,_0) + O_(2,_1,_0) + O_(3,_1,_0) + O_(4,_1,_0)
 - 1000 y_(1,_0) <= 0
_C83: b_(4,_0) = 4
_C84: O_(0,_1,_1) + O_(1,_1,_1) + O_(2,_1,_1) + O_(3,_1,_1) + O_(4,_1,_1)
 - 1000 y_(1,_1) <= 0
_C85: b_(4,_1) = 1
_C86: O_(0,_1,_2) + O_(1,_1,_2) + O_(2,_1,_2) + O_(3,_1,_2) + O_(4,_1,_2)
 - 1000 y_(1,_2) <= 0
_C87: b_(4,_2) = 9
_C88: O_(0,_2,_0) + O_(1,_2,_0) + O_(2,_2,_0) + O_(3,_2,_0) + O_(4,_2,_0)
 - 1000 y_(2,_0) <= 0
_C89: b_(4,_0) = 4
_C9: O_(0,_2,_2) >= 0
_C90: O_(0,_2,_1) + O_(1,_2,_1) + O_(2,_2,_1) + O_(3,_2,_1) + O_(4,_2,_1)
 - 1000 y_(2,_1) <= 0
_C91: b_(4,_1) = 1
_C92: O_(0,_2,_2) + O_(1,_2,_2) + O_(2,_2,_2) + O_(3,_2,_2) + O_(4,_2,_2)
 - 1000 y_(2,_2) <= 0
_C93: b_(4,_2) = 9
_C94: O_(0,_3,_0) + O_(1,_3,_0) + O_(2,_3,_0) + O_(3,_3,_0) + O_(4,_3,_0)
 - 1000 y_(3,_0) <= 0
_C95: b_(4,_0) = 4
_C96: O_(0,_3,_1) + O_(1,_3,_1) + O_(2,_3,_1) + O_(3,_3,_1) + O_(4,_3,_1)
 - 1000 y_(3,_1) <= 0
_C97: b_(4,_1) = 1
_C98: O_(0,_3,_2) + O_(1,_3,_2) + O_(2,_3,_2) + O_(3,_3,_2) + O_(4,_3,_2)
 - 1000 y_(3,_2) <= 0
_C99: b_(4,_2) = 9
Bounds
0 <= O_(0,_0,_0)
0 <= O_(0,_0,_1)
0 <= O_(0,_0,_2)
0 <= O_(0,_1,_0)
0 <= O_(0,_1,_1)
0 <= O_(0,_1,_2)
0 <= O_(0,_2,_0)
0 <= O_(0,_2,_1)
0 <= O_(0,_2,_2)
0 <= O_(0,_3,_0)
0 <= O_(0,_3,_1)
0 <= O_(0,_3,_2)
0 <= O_(0,_4,_0)
0 <= O_(0,_4,_1)
0 <= O_(0,_4,_2)
0 <= O_(1,_0,_0)
0 <= O_(1,_0,_1)
0 <= O_(1,_0,_2)
0 <= O_(1,_1,_0)
0 <= O_(1,_1,_1)
0 <= O_(1,_1,_2)
0 <= O_(1,_2,_0)
0 <= O_(1,_2,_1)
0 <= O_(1,_2,_2)
0 <= O_(1,_3,_0)
0 <= O_(1,_3,_1)
0 <= O_(1,_3,_2)
0 <= O_(1,_4,_0)
0 <= O_(1,_4,_1)
0 <= O_(1,_4,_2)
0 <= O_(2,_0,_0)
0 <= O_(2,_0,_1)
0 <= O_(2,_0,_2)
0 <= O_(2,_1,_0)
0 <= O_(2,_1,_1)
0 <= O_(2,_1,_2)
0 <= O_(2,_2,_0)
0 <= O_(2,_2,_1)
0 <= O_(2,_2,_2)
0 <= O_(2,_3,_0)
0 <= O_(2,_3,_1)
0 <= O_(2,_3,_2)
0 <= O_(2,_4,_0)
0 <= O_(2,_4,_1)
0 <= O_(2,_4,_2)
0 <= O_(3,_0,_0)
0 <= O_(3,_0,_1)
0 <= O_(3,_0,_2)
0 <= O_(3,_1,_0)
0 <= O_(3,_1,_1)
0 <= O_(3,_1,_2)
0 <= O_(3,_2,_0)
0 <= O_(3,_2,_1)
0 <= O_(3,_2,_2)
0 <= O_(3,_3,_0)
0 <= O_(3,_3,_1)
0 <= O_(3,_3,_2)
0 <= O_(3,_4,_0)
0 <= O_(3,_4,_1)
0 <= O_(3,_4,_2)
0 <= O_(4,_0,_0)
0 <= O_(4,_0,_1)
0 <= O_(4,_0,_2)
0 <= O_(4,_1,_0)
0 <= O_(4,_1,_1)
0 <= O_(4,_1,_2)
0 <= O_(4,_2,_0)
0 <= O_(4,_2,_1)
0 <= O_(4,_2,_2)
0 <= O_(4,_3,_0)
0 <= O_(4,_3,_1)
0 <= O_(4,_3,_2)
0 <= O_(4,_4,_0)
0 <= O_(4,_4,_1)
0 <= O_(4,_4,_2)
b_(4,_0) free
b_(4,_1) free
b_(4,_2) free
Generals
O_(0,_0,_0)
O_(0,_0,_1)
O_(0,_0,_2)
O_(0,_1,_0)
O_(0,_1,_1)
O_(0,_1,_2)
O_(0,_2,_0)
O_(0,_2,_1)
O_(0,_2,_2)
O_(0,_3,_0)
O_(0,_3,_1)
O_(0,_3,_2)
O_(0,_4,_0)
O_(0,_4,_1)
O_(0,_4,_2)
O_(1,_0,_0)
O_(1,_0,_1)
O_(1,_0,_2)
O_(1,_1,_0)
O_(1,_1,_1)
O_(1,_1,_2)
O_(1,_2,_0)
O_(1,_2,_1)
O_(1,_2,_2)
O_(1,_3,_0)
O_(1,_3,_1)
O_(1,_3,_2)
O_(1,_4,_0)
O_(1,_4,_1)
O_(1,_4,_2)
O_(2,_0,_0)
O_(2,_0,_1)
O_(2,_0,_2)
O_(2,_1,_0)
O_(2,_1,_1)
O_(2,_1,_2)
O_(2,_2,_0)
O_(2,_2,_1)
O_(2,_2,_2)
O_(2,_3,_0)
O_(2,_3,_1)
O_(2,_3,_2)
O_(2,_4,_0)
O_(2,_4,_1)
O_(2,_4,_2)
O_(3,_0,_0)
O_(3,_0,_1)
O_(3,_0,_2)
O_(3,_1,_0)
O_(3,_1,_1)
O_(3,_1,_2)
O_(3,_2,_0)
O_(3,_2,_1)
O_(3,_2,_2)
O_(3,_3,_0)
O_(3,_3,_1)
O_(3,_3,_2)
O_(3,_4,_0)
O_(3,_4,_1)
O_(3,_4,_2)
O_(4,_0,_0)
O_(4,_0,_1)
O_(4,_0,_2)
O_(4,_1,_0)
O_(4,_1,_1)
O_(4,_1,_2)
O_(4,_2,_0)
O_(4,_2,_1)
O_(4,_2,_2)
O_(4,_3,_0)
O_(4,_3,_1)
O_(4,_3,_2)
O_(4,_4,_0)
O_(4,_4,_1)
O_(4,_4,_2)
b_(4,_0)
b_(4,_1)
b_(4,_2)
Binaries
y_(0,_0)
y_(0,_1)
y_(0,_2)
y_(1,_0)
y_(1,_1)
y_(1,_2)
y_(2,_0)
y_(2,_1)
y_(2,_2)
y_(3,_0)
y_(3,_1)
y_(3,_2)
y_(4,_0)
y_(4,_1)
y_(4,_2)
End
